Geographic Exponential Decay
20 1 92 121 232 312 9 122 234 50 201 129 228 61 286 106 19 91 243 13 184
p edge 320 1207
e 0 111 1.0
e 0 82 11.0
e 1 82 100.0
e 1 131 20.0
e 1 90 65.0
e 1 227 33.0
e 1 41 92.0
e 1 74 10.0
e 1 53 94.0
e 1 174 56.0
e 1 228 75.0
e 1 197 24.0
e 1 76 12.0
e 1 159 86.0
e 1 105 36.0
e 1 104 50.0
e 1 10 87.0
e 1 36 56.0
e 1 77 25.0
e 1 139 68.0
e 1 37 40.0
e 1 243 60.0
e 1 198 90.0
e 1 186 21.0
e 1 223 11.0
e 1 216 55.0
e 1 199 85.0
e 1 89 15.0
e 1 178 60.0
e 1 73 15.0
e 1 87 12.0
e 1 167 81.0
e 1 128 50.0
e 1 4 18.0
e 1 215 91.0
e 1 81 31.0
e 1 92 43.0
e 1 124 21.0
e 1 200 35.0
e 2 95 21.0
e 2 132 17.0
e 2 204 12.0
e 2 186 20.0
e 2 117 14.0
e 2 162 23.0
e 2 44 15.0
e 2 282 17.0
e 2 4 23.0
e 2 288 15.0
e 3 272 1.0
e 3 197 3.0
e 3 159 3.0
e 4 88 9.0
e 4 79 3.0
e 4 17 3.0
e 5 313 1.0
e 5 314 1.0
e 6 248 5.0
e 6 156 5.0
e 6 266 5.0
e 7 45 11.0
e 7 283 14.0
e 7 165 15.0
e 7 72 5.0
e 7 170 20.0
e 7 81 4.0
e 7 256 23.0
e 7 205 15.0
e 7 175 22.0
e 7 0 11.0
e 8 155 1.0
e 8 190 2.0
e 8 232 10.0
e 9 262 26.0
e 9 161 66.0
e 9 14 44.0
e 9 28 79.0
e 9 293 16.0
e 9 85 68.0
e 9 159 75.0
e 9 21 69.0
e 9 203 28.0
e 9 52 13.0
e 9 18 4.0
e 9 222 30.0
e 9 94 9.0
e 9 117 45.0
e 9 53 90.0
e 9 183 9.0
e 9 314 76.0
e 9 195 23.0
e 9 110 59.0
e 9 230 76.0
e 9 40 45.0
e 9 97 5.0
e 9 284 99.0
e 9 43 31.0
e 9 83 64.0
e 9 114 38.0
e 9 8 95.0
e 9 243 46.0
e 9 30 47.0
e 9 87 15.0
e 9 285 7.0
e 9 90 64.0
e 9 235 13.0
e 9 201 91.0
e 9 74 44.0
e 9 283 4.0
e 9 213 90.0
e 10 169 1.0
e 10 9 56.0
e 11 96 1.0
e 11 236 1.0
e 12 109 1.0
e 12 29 2.0
e 13 53 59.0
e 13 198 48.0
e 13 70 100.0
e 13 125 72.0
e 13 254 47.0
e 13 203 95.0
e 13 15 26.0
e 13 140 47.0
e 13 89 7.0
e 13 51 3.0
e 13 178 33.0
e 13 240 55.0
e 13 33 37.0
e 13 175 46.0
e 13 22 51.0
e 13 208 51.0
e 13 85 50.0
e 13 28 35.0
e 13 317 61.0
e 13 237 19.0
e 13 302 15.0
e 13 11 31.0
e 13 7 45.0
e 13 151 50.0
e 13 130 63.0
e 13 296 12.0
e 13 64 5.0
e 13 242 36.0
e 13 238 81.0
e 13 126 94.0
e 13 150 51.0
e 13 204 52.0
e 13 141 13.0
e 13 312 3.0
e 13 25 55.0
e 13 68 86.0
e 13 274 53.0
e 14 48 9.0
e 14 96 11.0
e 14 44 7.0
e 14 125 12.0
e 15 155 2.0
e 15 36 4.0
e 16 163 1.0
e 16 175 5.0
e 17 275 1.0
e 18 52 3.0
e 18 1 99.0
e 19 188 25.0
e 19 155 1.0
e 19 293 5.0
e 19 246 23.0
e 19 27 44.0
e 19 308 39.0
e 19 274 11.0
e 19 92 46.0
e 19 99 42.0
e 19 128 53.0
e 19 247 69.0
e 19 143 38.0
e 19 243 54.0
e 19 134 78.0
e 19 28 42.0
e 19 251 23.0
e 19 142 76.0
e 19 29 14.0
e 19 88 5.0
e 19 295 14.0
e 19 11 79.0
e 19 145 45.0
e 19 2 51.0
e 19 294 34.0
e 19 203 69.0
e 19 62 57.0
e 19 231 98.0
e 19 306 39.0
e 19 166 56.0
e 19 75 18.0
e 19 268 46.0
e 19 275 75.0
e 19 218 81.0
e 19 309 18.0
e 19 68 51.0
e 19 114 74.0
e 19 144 90.0
e 20 263 1.0
e 20 41 3.0
e 20 114 2.0
e 21 283 11.0
e 21 97 11.0
e 21 47 9.0
e 21 68 12.0
e 22 56 11.0
e 22 268 13.0
e 22 42 22.0
e 22 315 10.0
e 22 52 21.0
e 22 289 14.0
e 22 23 5.0
e 22 240 12.0
e 22 43 16.0
e 23 66 2.0
e 23 105 1.0
e 24 28 6.0
e 24 166 2.0
e 25 164 1.0
e 26 103 11.0
e 26 86 11.0
e 26 92 31.0
e 26 185 3.0
e 26 239 6.0
e 27 173 3.0
e 30 116 1.0
e 31 7 43.0
e 31 113 36.0
e 31 155 1.0
e 31 257 38.0
e 31 134 35.0
e 31 17 13.0
e 31 286 29.0
e 31 25 1.0
e 31 162 6.0
e 31 117 4.0
e 31 118 17.0
e 31 180 41.0
e 31 96 20.0
e 31 121 87.0
e 31 198 35.0
e 31 79 29.0
e 31 59 12.0
e 31 149 11.0
e 31 224 6.0
e 32 113 11.0
e 32 207 1.0
e 33 2 17.0
e 34 208 2.0
e 34 148 2.0
e 35 101 11.0
e 35 7 20.0
e 35 189 23.0
e 35 208 12.0
e 35 245 8.0
e 37 240 4.0
e 37 21 11.0
e 38 237 1.0
e 38 36 3.0
e 38 108 3.0
e 39 220 1.0
e 39 318 1.0
e 40 14 2.0
e 42 15 2.0
e 45 64 2.0
e 46 244 1.0
e 46 75 1.0
e 46 279 1.0
e 47 105 4.0
e 47 169 1.0
e 48 259 2.0
e 48 35 8.0
e 49 295 1.0
e 49 184 14.0
e 49 313 5.0
e 50 15 14.0
e 50 46 38.0
e 50 234 54.0
e 50 279 71.0
e 50 264 75.0
e 50 301 11.0
e 50 19 44.0
e 50 255 77.0
e 50 235 78.0
e 50 306 11.0
e 50 262 31.0
e 50 261 22.0
e 50 233 88.0
e 50 157 40.0
e 50 169 58.0
e 50 248 35.0
e 50 236 14.0
e 50 36 38.0
e 50 237 45.0
e 50 61 55.0
e 50 5 77.0
e 50 18 82.0
e 50 62 30.0
e 50 271 15.0
e 50 238 100.0
e 50 302 69.0
e 50 141 10.0
e 50 315 61.0
e 50 117 36.0
e 50 63 82.0
e 50 188 20.0
e 50 249 62.0
e 50 290 97.0
e 50 22 30.0
e 50 313 46.0
e 50 224 35.0
e 50 239 81.0
e 51 5 1.0
e 54 102 1.0
e 54 164 1.0
e 55 69 1.0
e 55 189 14.0
e 56 194 3.0
e 57 86 1.0
e 57 0 1.0
e 58 182 5.0
e 58 113 5.0
e 58 159 3.0
e 59 43 1.0
e 60 228 3.0
e 60 45 1.0
e 61 128 51.0
e 61 169 20.0
e 61 308 90.0
e 61 138 32.0
e 61 78 28.0
e 61 35 40.0
e 61 69 34.0
e 61 253 60.0
e 61 177 90.0
e 61 39 42.0
e 61 305 39.0
e 61 68 76.0
e 61 99 60.0
e 61 285 95.0
e 61 139 83.0
e 61 204 39.0
e 61 4 17.0
e 61 218 41.0
e 61 140 76.0
e 61 281 20.0
e 61 291 64.0
e 61 215 23.0
e 61 135 71.0
e 61 286 8.0
e 61 230 74.0
e 61 20 49.0
e 61 153 59.0
e 61 295 59.0
e 61 301 73.0
e 61 158 7.0
e 61 178 78.0
e 61 232 58.0
e 61 265 77.0
e 61 6 95.0
e 61 200 71.0
e 61 287 40.0
e 63 310 3.0
e 65 113 23.0
e 65 145 1.0
e 65 316 1.0
e 66 244 7.0
e 66 210 1.0
e 67 156 1.0
e 67 285 4.0
e 70 78 2.0
e 71 0 1.0
e 71 252 1.0
e 72 76 10.0
e 72 318 32.0
e 72 260 41.0
e 72 175 29.0
e 72 292 28.0
e 72 165 27.0
e 72 157 7.0
e 72 231 20.0
e 72 138 1.0
e 72 246 23.0
e 72 215 30.0
e 72 299 14.0
e 72 289 9.0
e 72 178 41.0
e 72 270 3.0
e 72 286 57.0
e 72 28 1.0
e 72 12 1.0
e 73 167 14.0
e 73 146 10.0
e 73 195 6.0
e 73 207 12.0
e 73 101 21.0
e 73 42 15.0
e 73 51 14.0
e 73 111 3.0
e 73 162 4.0
e 74 289 7.0
e 74 77 7.0
e 74 293 1.0
e 75 218 6.0
e 76 11 3.0
e 79 234 54.0
e 79 72 38.0
e 79 16 7.0
e 80 154 6.0
e 80 295 4.0
e 82 102 5.0
e 82 178 2.0
e 82 98 2.0
e 83 276 2.0
e 83 70 4.0
e 83 299 6.0
e 83 19 42.0
e 84 87 4.0
e 84 186 1.0
e 84 176 3.0
e 87 233 21.0
e 87 229 7.0
e 90 125 3.0
e 90 249 3.0
e 90 44 3.0
e 91 264 57.0
e 91 132 2.0
e 91 296 62.0
e 91 293 60.0
e 91 0 21.0
e 91 226 34.0
e 91 122 28.0
e 91 204 73.0
e 91 244 93.0
e 91 205 87.0
e 91 230 100.0
e 91 146 27.0
e 91 18 94.0
e 91 191 99.0
e 91 206 22.0
e 91 197 79.0
e 91 82 14.0
e 91 43 37.0
e 91 101 80.0
e 91 143 61.0
e 91 144 80.0
e 91 104 35.0
e 91 200 69.0
e 91 189 45.0
e 91 231 71.0
e 91 127 88.0
e 91 98 37.0
e 91 150 91.0
e 91 165 73.0
e 91 237 1.0
e 91 268 16.0
e 91 166 75.0
e 91 139 9.0
e 91 318 93.0
e 91 25 95.0
e 91 303 58.0
e 91 212 39.0
e 92 226 83.0
e 92 170 31.0
e 92 145 19.0
e 92 71 3.0
e 92 107 98.0
e 92 306 25.0
e 92 178 63.0
e 92 276 52.0
e 92 41 74.0
e 92 152 1.0
e 92 125 82.0
e 92 78 36.0
e 92 265 46.0
e 92 249 29.0
e 92 129 56.0
e 92 315 15.0
e 92 194 1.0
e 92 93 85.0
e 92 167 68.0
e 92 290 71.0
e 92 302 42.0
e 92 108 25.0
e 92 8 80.0
e 92 42 39.0
e 92 27 62.0
e 92 234 24.0
e 92 156 99.0
e 92 119 79.0
e 92 62 88.0
e 92 318 93.0
e 92 14 68.0
e 92 16 8.0
e 92 314 96.0
e 92 272 85.0
e 93 179 1.0
e 94 122 75.0
e 94 30 5.0
e 95 285 5.0
e 99 266 5.0
e 99 234 21.0
e 99 305 4.0
e 100 234 29.0
e 100 11 1.0
e 103 311 4.0
e 104 274 8.0
e 104 87 1.0
e 104 222 6.0
e 106 153 39.0
e 106 32 72.0
e 106 186 22.0
e 106 30 36.0
e 106 17 58.0
e 106 284 84.0
e 106 105 93.0
e 106 127 54.0
e 106 94 9.0
e 106 117 21.0
e 106 102 69.0
e 106 82 12.0
e 106 148 70.0
e 106 208 48.0
e 106 11 62.0
e 106 258 59.0
e 106 232 42.0
e 106 169 74.0
e 106 225 58.0
e 106 185 93.0
e 106 139 85.0
e 106 31 64.0
e 106 188 54.0
e 106 212 71.0
e 106 296 69.0
e 106 50 29.0
e 106 179 79.0
e 106 282 49.0
e 106 12 88.0
e 106 100 10.0
e 106 147 2.0
e 106 77 27.0
e 106 197 77.0
e 106 28 85.0
e 106 299 89.0
e 106 66 83.0
e 106 128 49.0
e 107 20 2.0
e 107 66 46.0
e 107 210 1.0
e 107 303 13.0
e 107 38 36.0
e 107 54 33.0
e 107 186 42.0
e 107 316 25.0
e 107 305 28.0
e 107 169 6.0
e 107 103 5.0
e 107 0 27.0
e 107 253 43.0
e 107 154 4.0
e 107 76 26.0
e 107 143 24.0
e 107 25 2.0
e 107 311 1.0
e 108 260 6.0
e 108 183 4.0
e 108 268 8.0
e 109 138 3.0
e 110 85 2.0
e 110 91 30.0
e 110 1 1.0
e 110 247 6.0
e 111 302 8.0
e 112 1 2.0
e 112 214 6.0
e 113 291 12.0
e 113 71 6.0
e 113 219 4.0
e 113 129 65.0
e 113 0 11.0
e 113 258 21.0
e 115 147 1.0
e 115 150 1.0
e 115 101 4.0
e 116 245 10.0
e 116 87 1.0
e 118 32 3.0
e 119 139 1.0
e 119 240 11.0
e 119 297 5.0
e 119 29 11.0
e 120 195 1.0
e 120 91 23.0
e 121 256 68.0
e 121 166 14.0
e 121 176 17.0
e 121 137 71.0
e 121 250 98.0
e 121 100 52.0
e 121 293 48.0
e 121 26 69.0
e 121 270 75.0
e 121 312 83.0
e 121 252 97.0
e 121 177 31.0
e 121 302 61.0
e 121 267 41.0
e 121 167 94.0
e 121 145 74.0
e 121 257 32.0
e 121 62 54.0
e 121 195 99.0
e 121 308 33.0
e 121 183 78.0
e 121 77 58.0
e 121 217 38.0
e 121 68 63.0
e 121 132 47.0
e 121 91 36.0
e 121 23 13.0
e 121 152 94.0
e 121 30 78.0
e 121 53 55.0
e 121 185 8.0
e 121 265 15.0
e 121 122 53.0
e 121 4 35.0
e 121 255 81.0
e 121 76 54.0
e 122 148 15.0
e 122 178 45.0
e 122 133 27.0
e 122 56 71.0
e 122 59 12.0
e 122 46 69.0
e 122 220 86.0
e 122 262 80.0
e 122 65 82.0
e 122 190 18.0
e 122 174 23.0
e 122 27 47.0
e 122 151 60.0
e 122 126 6.0
e 122 285 100.0
e 122 40 41.0
e 122 135 54.0
e 122 300 56.0
e 122 20 24.0
e 122 47 8.0
e 122 199 59.0
e 122 226 90.0
e 122 184 4.0
e 122 181 76.0
e 122 235 45.0
e 122 123 96.0
e 122 128 99.0
e 122 274 45.0
e 122 117 60.0
e 122 17 93.0
e 122 304 77.0
e 122 204 36.0
e 122 41 87.0
e 122 152 38.0
e 123 2 10.0
e 124 249 10.0
e 124 126 3.0
e 124 193 8.0
e 124 97 4.0
e 127 233 14.0
e 128 125 16.0
e 128 124 2.0
e 128 51 16.0
e 128 146 4.0
e 128 39 8.0
e 129 94 76.0
e 129 112 64.0
e 129 83 60.0
e 129 224 2.0
e 129 225 63.0
e 129 148 38.0
e 129 60 26.0
e 129 251 17.0
e 129 221 94.0
e 129 273 46.0
e 129 18 97.0
e 129 195 9.0
e 129 135 10.0
e 129 250 89.0
e 129 155 52.0
e 129 254 15.0
e 129 7 86.0
e 129 283 66.0
e 129 208 100.0
e 129 223 22.0
e 129 125 55.0
e 129 281 100.0
e 129 240 65.0
e 129 69 75.0
e 129 149 95.0
e 129 84 68.0
e 129 312 13.0
e 129 203 90.0
e 129 169 67.0
e 129 285 52.0
e 129 22 7.0
e 129 241 62.0
e 129 201 84.0
e 129 168 35.0
e 129 1 66.0
e 130 254 1.0
e 131 265 10.0
e 131 95 2.0
e 133 243 35.0
e 136 178 4.0
e 136 49 4.0
e 136 167 2.0
e 137 285 1.0
e 142 153 36.0
e 142 92 85.0
e 142 34 16.0
e 142 140 14.0
e 142 126 13.0
e 142 277 14.0
e 142 310 16.0
e 142 222 2.0
e 142 203 8.0
e 144 318 4.0
e 144 296 44.0
e 144 73 34.0
e 144 312 65.0
e 144 108 10.0
e 144 232 55.0
e 144 261 9.0
e 144 65 4.0
e 144 74 45.0
e 144 294 1.0
e 144 111 47.0
e 144 117 25.0
e 144 313 34.0
e 144 87 42.0
e 144 304 48.0
e 144 37 6.0
e 144 200 40.0
e 145 299 9.0
e 149 229 2.0
e 153 122 72.0
e 153 246 8.0
e 153 25 35.0
e 153 117 12.0
e 153 37 5.0
e 153 41 29.0
e 153 118 49.0
e 153 193 15.0
e 153 59 26.0
e 153 221 5.0
e 153 227 2.0
e 153 211 25.0
e 153 23 2.0
e 153 299 20.0
e 153 77 50.0
e 153 225 23.0
e 154 169 3.0
e 157 101 2.0
e 157 179 17.0
e 157 286 67.0
e 157 141 19.0
e 157 0 12.0
e 157 308 5.0
e 157 126 6.0
e 157 226 5.0
e 158 201 53.0
e 160 26 1.0
e 160 299 11.0
e 160 28 6.0
e 160 146 4.0
e 160 257 6.0
e 161 25 2.0
e 162 235 5.0
e 162 24 18.0
e 162 116 9.0
e 162 74 2.0
e 162 166 16.0
e 162 121 11.0
e 162 95 20.0
e 163 35 7.0
e 168 4 6.0
e 171 118 1.0
e 171 232 44.0
e 172 129 95.0
e 172 303 3.0
e 173 151 4.0
e 173 26 1.0
e 174 282 7.0
e 174 46 1.0
e 174 225 3.0
e 174 236 19.0
e 174 237 19.0
e 174 93 1.0
e 174 100 16.0
e 174 84 17.0
e 180 71 4.0
e 180 69 4.0
e 181 28 1.0
e 181 95 3.0
e 182 79 6.0
e 182 310 3.0
e 184 163 94.0
e 184 64 61.0
e 184 120 46.0
e 184 181 48.0
e 184 317 59.0
e 184 172 43.0
e 184 302 23.0
e 184 207 6.0
e 184 14 19.0
e 184 261 96.0
e 184 44 65.0
e 184 282 81.0
e 184 118 12.0
e 184 260 75.0
e 184 66 4.0
e 184 53 52.0
e 184 135 100.0
e 184 40 68.0
e 184 206 50.0
e 184 248 70.0
e 184 134 31.0
e 184 175 37.0
e 184 189 18.0
e 184 161 64.0
e 184 1 100.0
e 184 29 72.0
e 184 87 35.0
e 184 96 90.0
e 184 115 72.0
e 184 11 48.0
e 184 241 94.0
e 184 114 98.0
e 184 230 2.0
e 184 177 73.0
e 184 238 53.0
e 187 10 1.0
e 187 89 2.0
e 189 142 2.0
e 189 294 13.0
e 189 131 6.0
e 189 96 20.0
e 189 297 9.0
e 189 199 23.0
e 191 265 4.0
e 192 311 1.0
e 192 116 5.0
e 194 11 7.0
e 194 215 9.0
e 194 68 12.0
e 196 150 20.0
e 196 18 18.0
e 196 180 12.0
e 196 304 24.0
e 196 106 31.0
e 196 162 1.0
e 196 11 18.0
e 196 161 12.0
e 196 124 18.0
e 196 28 3.0
e 198 278 12.0
e 198 67 7.0
e 198 2 15.0
e 198 30 1.0
e 198 37 15.0
e 198 233 8.0
e 198 156 8.0
e 201 205 65.0
e 201 113 31.0
e 201 230 79.0
e 201 133 61.0
e 201 90 18.0
e 201 146 67.0
e 201 190 36.0
e 201 102 34.0
e 201 12 40.0
e 201 303 16.0
e 201 227 76.0
e 201 173 38.0
e 201 17 29.0
e 201 99 45.0
e 201 175 54.0
e 201 301 6.0
e 201 70 61.0
e 201 7 49.0
e 201 191 13.0
e 201 15 14.0
e 201 74 96.0
e 201 273 79.0
e 201 187 67.0
e 201 288 62.0
e 201 92 7.0
e 201 38 62.0
e 201 171 28.0
e 201 119 36.0
e 201 318 74.0
e 201 137 48.0
e 201 124 81.0
e 201 116 57.0
e 201 304 34.0
e 201 13 18.0
e 202 81 3.0
e 202 260 2.0
e 203 299 16.0
e 203 192 6.0
e 203 15 6.0
e 203 32 19.0
e 203 111 14.0
e 206 119 5.0
e 209 38 5.0
e 209 34 5.0
e 209 307 11.0
e 209 177 6.0
e 209 57 11.0
e 210 167 11.0
e 210 47 10.0
e 210 170 2.0
e 211 180 1.0
e 211 228 41.0
e 211 295 8.0
e 211 300 11.0
e 213 289 1.0
e 213 261 1.0
e 213 112 3.0
e 213 184 72.0
e 214 19 42.0
e 214 263 2.0
e 216 14 1.0
e 216 73 20.0
e 216 78 1.0
e 216 155 10.0
e 217 229 5.0
e 217 59 1.0
e 219 158 9.0
e 219 119 8.0
e 219 45 5.0
e 219 110 4.0
e 221 314 3.0
e 223 268 1.0
e 228 16 90.0
e 228 87 58.0
e 228 258 96.0
e 228 17 43.0
e 228 181 90.0
e 228 10 76.0
e 228 193 68.0
e 228 6 55.0
e 228 40 45.0
e 228 49 5.0
e 228 243 59.0
e 228 98 22.0
e 228 222 35.0
e 228 310 56.0
e 228 2 85.0
e 228 275 75.0
e 228 117 41.0
e 228 257 92.0
e 228 151 81.0
e 228 225 20.0
e 228 190 23.0
e 228 118 36.0
e 228 296 33.0
e 228 187 97.0
e 228 315 44.0
e 228 155 40.0
e 228 174 33.0
e 228 289 26.0
e 228 18 34.0
e 228 21 1.0
e 228 162 8.0
e 228 254 26.0
e 228 41 38.0
e 228 73 55.0
e 230 263 16.0
e 230 58 23.0
e 230 63 24.0
e 230 294 5.0
e 230 76 4.0
e 232 176 75.0
e 232 256 6.0
e 232 229 23.0
e 232 19 99.0
e 232 172 93.0
e 232 95 10.0
e 232 191 90.0
e 232 268 78.0
e 232 76 61.0
e 232 299 50.0
e 232 100 11.0
e 232 269 88.0
e 232 127 44.0
e 232 125 18.0
e 232 193 47.0
e 232 65 91.0
e 232 184 39.0
e 232 175 86.0
e 232 107 1.0
e 232 66 62.0
e 232 170 13.0
e 232 146 78.0
e 232 295 95.0
e 232 155 24.0
e 232 245 38.0
e 232 213 76.0
e 232 93 46.0
e 232 301 25.0
e 232 62 89.0
e 232 116 35.0
e 232 44 30.0
e 232 159 56.0
e 233 312 15.0
e 233 234 9.0
e 233 85 4.0
e 233 177 15.0
e 233 254 11.0
e 233 215 18.0
e 234 9 24.0
e 234 242 41.0
e 234 235 56.0
e 234 7 18.0
e 234 140 12.0
e 234 177 82.0
e 234 1 54.0
e 234 246 75.0
e 234 68 31.0
e 234 292 10.0
e 234 190 49.0
e 234 250 42.0
e 234 296 32.0
e 234 243 99.0
e 234 62 71.0
e 234 260 62.0
e 234 51 54.0
e 234 81 4.0
e 234 256 39.0
e 234 136 2.0
e 234 110 34.0
e 234 89 79.0
e 234 220 3.0
e 234 69 48.0
e 234 236 39.0
e 234 106 90.0
e 234 29 73.0
e 234 206 82.0
e 234 252 5.0
e 234 228 67.0
e 234 303 49.0
e 238 209 8.0
e 238 173 5.0
e 241 316 8.0
e 241 196 10.0
e 241 309 1.0
e 241 149 20.0
e 241 40 24.0
e 241 211 23.0
e 241 55 12.0
e 241 156 17.0
e 242 175 24.0
e 242 4 9.0
e 242 44 7.0
e 242 274 21.0
e 242 174 4.0
e 242 238 17.0
e 242 150 8.0
e 242 243 15.0
e 243 235 9.0
e 243 161 31.0
e 243 236 74.0
e 243 84 52.0
e 243 276 11.0
e 243 110 96.0
e 243 91 39.0
e 243 233 78.0
e 243 225 34.0
e 243 135 23.0
e 243 289 71.0
e 243 296 72.0
e 243 149 45.0
e 243 301 52.0
e 243 134 16.0
e 243 221 2.0
e 243 187 86.0
e 243 111 71.0
e 243 256 78.0
e 243 136 70.0
e 243 184 8.0
e 243 66 26.0
e 243 67 42.0
e 243 73 64.0
e 243 239 32.0
e 243 308 22.0
e 243 313 38.0
e 243 210 98.0
e 243 245 15.0
e 243 220 68.0
e 244 270 7.0
e 244 143 12.0
e 245 81 3.0
e 250 77 11.0
e 250 4 16.0
e 250 88 18.0
e 250 170 10.0
e 250 12 1.0
e 250 109 11.0
e 250 63 17.0
e 259 60 1.0
e 261 60 12.0
e 267 296 7.0
e 269 214 4.0
e 271 166 2.0
e 272 203 11.0
e 273 80 1.0
e 277 7 24.0
e 278 64 11.0
e 278 53 2.0
e 278 116 10.0
e 278 222 1.0
e 280 111 4.0
e 280 230 5.0
e 280 254 5.0
e 286 112 63.0
e 286 247 33.0
e 286 318 43.0
e 286 248 97.0
e 286 52 12.0
e 286 225 69.0
e 286 236 93.0
e 286 47 9.0
e 286 49 5.0
e 286 164 7.0
e 286 298 77.0
e 286 88 57.0
e 286 265 2.0
e 286 226 40.0
e 286 143 77.0
e 286 278 78.0
e 286 28 4.0
e 286 41 16.0
e 286 46 8.0
e 286 162 88.0
e 286 12 9.0
e 286 303 36.0
e 286 136 90.0
e 286 208 46.0
e 286 274 43.0
e 286 109 23.0
e 286 258 89.0
e 286 13 22.0
e 286 14 13.0
e 286 128 67.0
e 286 252 52.0
e 286 140 13.0
e 286 66 14.0
e 287 64 4.0
e 287 251 1.0
e 291 195 1.0
e 297 174 22.0
e 298 284 1.0
e 300 245 6.0
e 305 8 5.0
e 305 232 82.0
e 307 50 40.0
e 309 225 4.0
e 312 294 30.0
e 312 109 61.0
e 312 179 36.0
e 312 94 26.0
e 312 7 3.0
e 312 95 30.0
e 312 103 8.0
e 312 289 82.0
e 312 35 50.0
e 312 220 48.0
e 312 122 15.0
e 312 240 98.0
e 312 221 44.0
e 312 318 34.0
e 312 256 20.0
e 312 105 47.0
e 312 112 93.0
e 312 30 93.0
e 312 184 53.0
e 312 6 33.0
e 312 80 7.0
e 312 18 1.0
e 312 205 41.0
e 312 110 47.0
e 312 252 62.0
e 312 250 83.0
e 312 313 57.0
e 312 63 22.0
e 312 149 12.0
e 312 259 38.0
e 312 175 62.0
e 312 162 22.0
e 314 176 1.0
e 317 36 2.0
e 319 28 5.0
e 319 10 1.0
